n=40;
t=50;
profit=[10 4 8 7 4 1 5 8 9 8 4 4 6 10 1 9 2 7 1 2 2 1 1 8 2 9 1 2 5 6 10 2 2 6 6 6 9 6 4 9];
length=[1 5 3 2 2 5 2 5 1 2 3 5 1 5 2 5 5 3 2 3 1 3 3 5 3 1 1 5 4 2 5 4 4 4 3 4 2 4 2 4];
min_deliver=[30 44 24 20 33 38 45 36 16 50 20 18 46 43 27 23 7 26 29 6 40 3 28 7 35 41 3 5 11 7 43 31 4 26 15 7 48 43 12 35];
max_deliver=[39 46 25 20 38 46 46 44 17 50 24 25 46 43 30 25 7 34 31 14 41 3 32 11 41 49 3 5 13 14 44 37 5 27 24 12 49 47 15 37];
surface=[1 4 3 1 5 2 4 1 2 1 5 5 1 5 3 5 4 4 4 5 5 3 2 4 2 4 5 1 3 5 1 5 3 3 4 5 4 1 2 3];
surface_capacity=16;
